NAME : brazil58Preorder.6236.tour
COMMENT : Length = 6236
COMMENT : Found by LKH [Keld Helsgaun] Thu Apr 23 09:33:32 2020
TYPE : TOUR
DIMENSION : 58
TOUR_SECTION
1
30
13
40
25
9
32
20
53
50
4
7
31
38
42
16
11
39
21
36
17
26
19
6
28
14
37
15
34
46
56
45
33
29
3
48
22
8
55
54
2
41
35
10
52
51
47
49
43
27
12
57
23
5
58
24
44
18
-1
EOF
